
List of user-set options:

                                    Name   Value                used
                           compl_inf_tol = 1                     yes
                         constr_viol_tol = 1                     yes
                            dual_inf_tol = 1000                  yes
                           linear_solver = ma97                  yes
                              ma86_small = 1e-30                  no
                                  ma86_u = 0.0001                 no
                              ma97_order = best                  yes
                              ma97_small = 1e-30                 yes
                            ma97_switch1 = at_start              yes
                            ma97_switch2 = od_hd_reuse           yes
                                  ma97_u = 1e-06                 yes
                               ma97_umax = 0.5                   yes
                                max_iter = 1000                  yes
                    max_refinement_steps = 20                    yes
                    min_refinement_steps = 5                     yes
                                 mu_init = 1e-06                 yes
           mu_superlinear_decrease_power = 1.25                  yes
                   nlp_scaling_min_value = 1e-08                 yes
                        option_file_name = Preset_Case_983_pf.opt  yes
                             output_file = ./tmp/Preset_Case_983_pf.output  yes
                      print_user_options = yes                   yes
        required_infeasibility_reduction = 1                      no
                                     tol = 1e-08                 yes
                   warm_start_bound_frac = 1e-20                 yes
                   warm_start_bound_push = 1e-20                 yes
                   warm_start_init_point = yes                   yes
              warm_start_mult_bound_push = 1e-20                 yes
                warm_start_mult_init_max = 1e+40                 yes
             warm_start_slack_bound_frac = 1e-20                 yes
             warm_start_slack_bound_push = 1e-20                 yes

******************************************************************************
This program contains Ipopt, a library for large-scale nonlinear optimization.
 Ipopt is released as open source code under the Eclipse Public License (EPL).
         For more information visit http://projects.coin-or.org/Ipopt
******************************************************************************

This is Ipopt version 3.12.10, running with linear solver ma97.

Number of nonzeros in equality constraint Jacobian...:   123442
Number of nonzeros in inequality constraint Jacobian.:      213
Number of nonzeros in Lagrangian Hessian.............:    49069

Total number of variables............................:    31591
                     variables with only lower bounds:    12912
                variables with lower and upper bounds:    15130
                     variables with only upper bounds:        0
Total number of equality constraints.................:    31483
Total number of inequality constraints...............:       25
        inequality constraints with only lower bounds:        4
   inequality constraints with lower and upper bounds:        0
        inequality constraints with only upper bounds:       21

iter    objective    inf_pr   inf_du lg(mu)  ||d||  lg(rg) alpha_du alpha_pr  ls
   0 -5.2291574e+00 4.02e-03 1.02e+00  -6.0 0.00e+00    -  0.00e+00 0.00e+00   0
   1 -5.2300679e+00 3.65e-03 2.44e+00  -6.0 3.26e+03  -4.0 1.79e-03 9.67e-04h  1
   2 -5.2301022e+00 1.79e-03 4.38e+01  -6.0 5.01e+00  -4.5 1.82e-01 5.04e-03f  1
   3 -5.2339519e+00 9.65e-04 2.68e+01  -6.0 1.45e+01  -5.0 1.24e-01 1.98e-01f  1
   4 -5.2509995e+00 6.30e-03 5.97e+01  -6.0 4.05e+01  -5.4 6.87e-03 3.22e-01f  1
   5 -5.3198354e+00 1.46e-01 2.54e+02  -6.0 1.13e+02  -5.9 4.15e-01 4.61e-01f  1
   6 -5.3966691e+00 4.84e-01 2.32e+02  -6.0 1.31e+02  -6.4 1.19e-01 1.44e-01h  1
   7 -5.5136712e+00 6.41e-01 2.13e+02  -6.0 3.64e+02  -6.9 1.89e-01 2.72e-01h  1
   8 -5.5856154e+00 7.05e-01 1.66e+02  -6.0 6.55e+02  -7.3 8.19e-02 1.95e-01h  1
   9 -5.6185952e+00 7.00e-01 1.31e+02  -6.0 2.16e+02  -6.0 1.67e-01 3.37e-01f  1
iter    objective    inf_pr   inf_du lg(mu)  ||d||  lg(rg) alpha_du alpha_pr  ls
  10 -5.6360582e+00 4.22e-01 1.12e+02  -6.0 1.84e+01  -4.7 3.27e-01 1.00e+00h  1
  11 -5.6460798e+00 3.86e-01 6.22e+01  -6.0 1.17e+01  -5.2 4.57e-01 9.45e-01h  1
  12 -5.6546385e+00 1.39e-01 2.26e+01  -6.0 2.32e+01  -5.6 3.65e-01 1.00e+00h  1
  13 -5.6809301e+00 3.94e-01 4.96e+01  -6.0 5.82e+01  -6.1 2.51e-01 1.00e+00h  1
  14 -5.6919329e+00 7.16e-01 4.50e+01  -6.0 1.32e+02  -6.6 2.60e-01 2.37e-01h  1
  15 -5.7461628e+00 8.59e+00 6.20e+02  -6.0 5.38e+02  -7.1 2.56e-01 4.29e-01h  1
  16 -5.7907219e+00 9.30e+00 1.05e+03  -6.0 2.19e+04    -  1.15e-02 1.96e-02h  1
  17 -5.8129608e+00 8.20e+00 1.00e+03  -6.0 1.60e+03    -  3.06e-01 9.12e-02h  1
  18 -5.8286638e+00 7.64e+00 9.79e+02  -6.0 1.93e+03    -  1.00e+00 5.77e-02h  1
  19 -5.8889952e+00 3.47e+00 1.14e+03  -6.0 1.98e+03    -  2.60e-01 2.58e-01h  1
iter    objective    inf_pr   inf_du lg(mu)  ||d||  lg(rg) alpha_du alpha_pr  ls
  20 -5.8922202e+00 3.42e+00 1.12e+03  -6.0 2.55e+03    -  1.29e-01 1.55e-02h  1
  21 -5.9110930e+00 2.97e+00 4.03e+03  -6.0 1.58e+03    -  1.00e+00 1.48e-01h  1
  22 -5.9491254e+00 3.04e+00 3.08e+03  -6.0 1.63e+03    -  7.04e-01 3.53e-01h  1
  23 -5.9864560e+00 2.45e+00 3.67e+03  -6.0 1.53e+03    -  1.00e+00 5.46e-01h  1
  24 -5.9821329e+00 1.38e+00 1.20e+04  -6.0 8.85e+02    -  1.38e-01 1.00e+00h  1
  25 -5.9831683e+00 1.19e+00 1.12e+04  -6.0 2.37e+02    -  4.42e-01 1.62e-01h  1
  26 -5.9872629e+00 9.50e-01 2.61e+04  -6.0 2.10e+02    -  1.00e+00 6.61e-01h  1
  27 -5.9884230e+00 8.03e-01 3.95e+05  -6.0 3.82e+02    -  4.47e-02 1.92e-01h  1
  28 -5.9884445e+00 8.02e-01 3.96e+05  -6.0 1.58e+03    -  1.10e-01 2.54e-04h  1
  29 -5.9921078e+00 6.96e-01 3.23e+05  -6.0 4.02e+02    -  2.38e-01 2.29e-01f  1
iter    objective    inf_pr   inf_du lg(mu)  ||d||  lg(rg) alpha_du alpha_pr  ls
  30 -5.9851614e+00 6.88e-01 1.23e+05  -6.0 8.83e+02    -  3.13e-01 2.86e-02h  2
  31 -5.9852584e+00 6.87e-01 1.20e+05  -6.0 6.75e+02    -  3.97e-01 1.99e-03h  1
  32 -5.9833346e+00 6.44e-01 2.22e+05  -6.0 3.29e+02    -  2.15e-01 2.50e-01h  3
  33 -5.9982914e+00 5.08e-01 2.97e+05  -6.0 1.63e+02    -  1.00e+00 3.54e-01h  1
  34 -6.0073016e+00 1.12e+00 6.71e+04  -6.0 2.63e+02    -  6.25e-01 7.11e-01h  1
  35r-6.0073016e+00 1.12e+00 1.00e+03   0.0 0.00e+00    -  0.00e+00 2.75e-07R  3
  36r-6.0161483e+00 1.12e+00 1.02e+03   0.0 1.96e+04    -  7.78e-06 1.62e-06f  1
  37 -6.0159594e+00 1.10e+00 3.13e+05  -6.0 1.53e+01    -  2.10e-01 1.60e-02h  1
  38 -6.0111680e+00 7.76e-01 6.15e+06  -6.0 1.52e+01    -  1.61e-02 2.97e-01h  1
  39 -6.0073728e+00 4.40e-01 3.48e+06  -6.0 1.23e+01    -  2.59e-01 4.34e-01h  1
iter    objective    inf_pr   inf_du lg(mu)  ||d||  lg(rg) alpha_du alpha_pr  ls
  40 -6.0079633e+00 4.09e-01 3.23e+06  -6.0 8.59e+00    -  8.09e-01 6.96e-02h  1
  41 -6.0043318e+00 2.37e-01 1.85e+06  -6.0 4.39e+01  -4.8 2.62e-01 4.28e-01h  1
  42 -6.0039122e+00 1.62e-01 1.26e+06  -6.0 4.32e+00    -  9.42e-01 3.17e-01h  1
  43 -6.0040540e+00 1.51e-01 1.17e+06  -6.0 1.04e+01    -  9.40e-01 6.95e-02h  1
  44 -6.0046616e+00 1.35e-03 4.19e+00  -6.0 3.43e+00  -5.3 9.72e-01 1.00e+00h  1
  45 -6.0045691e+00 1.19e-03 6.50e+00  -6.0 6.22e+00  -5.8 1.00e+00 1.16e-01H  1
  46 -6.0069583e+00 5.45e-01 9.62e+00  -6.0 1.62e+02    -  1.00e+00 5.07e-01F  1
  47 -6.0128094e+00 8.82e-01 2.80e+01  -6.0 1.32e+02    -  2.42e-03 7.56e-01H  1
  48 -6.0127776e+00 9.04e-01 3.94e+02  -6.0 3.03e+02    -  1.00e+00 3.28e-01h  2
  49 -6.0070586e+00 3.12e-01 2.39e+02  -6.0 9.99e+01    -  6.28e-01 1.00e+00h  1
iter    objective    inf_pr   inf_du lg(mu)  ||d||  lg(rg) alpha_du alpha_pr  ls
  50 -6.0084286e+00 2.33e-02 6.00e+01  -6.0 2.69e+01    -  7.54e-01 1.00e+00h  1
  51 -6.0082043e+00 2.06e-02 1.80e-01  -6.0 2.55e+01    -  1.00e+00 1.00e+00h  1
  52 -6.0081369e+00 5.69e-04 2.42e-03  -6.0 4.22e+00    -  1.00e+00 1.00e+00h  1
  53 -6.0081352e+00 1.64e-09 2.42e-08  -6.0 7.46e-03    -  1.00e+00 1.00e+00h  1
  54 -6.0082044e+00 1.61e-01 7.12e+01  -7.5 1.39e+02    -  9.35e-01 6.88e-01h  1
  55 -6.0082138e+00 4.89e-02 1.47e+01  -7.5 4.41e+01    -  1.00e+00 8.51e-01h  1
  56 -6.0082132e+00 5.74e-04 7.09e-03  -7.5 5.66e+00    -  1.00e+00 1.00e+00h  1
  57 -6.0082132e+00 7.82e-09 7.63e-09  -7.5 2.17e-02    -  1.00e+00 1.00e+00h  1
  58 -6.0082147e+00 2.49e-04 6.53e-01  -9.0 4.41e+00    -  9.25e-01 8.54e-01h  1
  59 -6.0082149e+00 7.31e-06 2.48e-01  -9.0 6.44e-01    -  9.35e-01 1.00e+00f  1
iter    objective    inf_pr   inf_du lg(mu)  ||d||  lg(rg) alpha_du alpha_pr  ls
  60 -6.0082149e+00 2.85e-10 6.06e-09  -9.0 1.77e-04    -  1.00e+00 1.00e+00h  1

Number of Iterations....: 60

                                   (scaled)                 (unscaled)
Objective...............:  -4.6939178978147211e+00   -6.0082149092028434e+00
Dual infeasibility......:   6.0645456148540387e-09    7.7626183870131690e-09
Constraint violation....:   2.8526643601565344e-10    2.8526643601565344e-10
Complementarity.........:   1.3483543202861691e-09    1.7258935299662965e-09
Overall NLP error.......:   6.0645456148540387e-09    7.7626183870131690e-09


Number of objective function evaluations             = 78
Number of objective gradient evaluations             = 61
Number of equality constraint evaluations            = 78
Number of inequality constraint evaluations          = 78
Number of equality constraint Jacobian evaluations   = 62
Number of inequality constraint Jacobian evaluations = 62
Number of Lagrangian Hessian evaluations             = 60
Total CPU secs in IPOPT (w/o function evaluations)   =     71.885
Total CPU secs in NLP function evaluations           =      1.493

EXIT: Optimal Solution Found.
